; ./prepared/aeval/./multi-phase/s_split_52_000.smt2
(set-logic HORN)


(declare-fun |inv| ( Int Int Int ) Bool)
(declare-fun |fail| ( ) Bool)

(assert
  (forall ( (A Int) (B Int) (C Int) ) 
    (=>
      (and
        (and (= B C) (= C 5000) (= A 0))
      )
      (inv A B C)
    )
  )
)
(assert
  (forall ( (A Int) (B Int) (C Int) (D Int) (E Int) ) 
    (=>
      (and
        (inv A B E)
        (and (= D (ite (>= A E) (+ 1 B) (+ (- 1) B))) (= C (+ 1 A)))
      )
      (inv C D E)
    )
  )
)
(assert
  (forall ( (A Int) (B Int) (C Int) ) 
    (=>
      (and
        (inv A B C)
        (and (not (= B C)) (= A (* 2 C)))
      )
      fail
    )
  )
)
(assert
  (forall ( (CHC_COMP_UNUSED Bool) ) 
    (=>
      (and
        fail
        true
      )
      false
    )
  )
)

(check-sat)
(exit)
